NAME : in_house_9_3
TYPE : TSP
DIMENSION : 9
EDGE_WEIGHT_TYPE : EXPLICIT
EDGE_WEIGHT_FORMAT : UPPER_ROW
COMMENT : INVERSION_SHIFT=4
EDGE_WEIGHT_SECTION
38
35
30
55
61
2
68
16
20
16
4
34
31
46
32
28
59
77
29
25
79
19
81
33
59
7
12
60
33
60
31
6
40
4
78
25
